% Auto-generated by scripts/generate_dzn.py
% problem_type   = regex
% instance       = regex_60
% source_json    = instances_json/2_high_blowup/regex_60.json
% blowup         = 53.266666666666666
% representation = DFA

mode = 0;

var_count = 37;
Q = 799;
S = 3;
q0 = 1;
F = {495, 496, 497, 498, 499, 500, 501, 502, 503, 504, 505, 506, 507, 508, 509, 510, 511, 512, 513, 514, 515, 516, 517, 518, 519, 520, 521, 522, 523, 524, 525, 526, 527, 528, 529, 530, 531, 532, 533, 534, 535, 536, 537, 538, 539, 540, 541, 542, 543, 544, 545, 546, 547, 548, 549, 550, 551, 552, 553, 554, 555, 556, 557, 558, 559, 560, 561, 562, 563, 564, 565, 566, 567, 568, 569, 570, 571, 572, 573, 574, 575, 576, 577, 578, 579, 580, 581, 582, 583, 584, 585, 586, 587, 588, 589, 590, 591, 592, 593, 594, 595, 596, 597, 598, 599, 600, 601, 602, 603, 604, 605, 606, 607, 608, 609, 610, 611, 612, 613, 614, 615, 616, 617, 618, 619, 620, 621, 622, 623, 624, 625, 626, 627, 628, 629, 630, 631, 632, 633, 634, 635, 636, 637, 638, 639, 640, 641, 642, 643, 644, 645, 646, 647, 648, 649, 650, 651, 652, 653, 654, 655, 656, 657, 658, 659, 660, 661, 662, 663, 664, 665, 666, 667, 668, 669, 670, 671, 672, 673, 674, 675, 676, 677, 678, 679, 680, 681, 682, 683, 684, 685, 686, 687, 688, 689, 690, 691, 692, 693, 694, 695, 696, 697, 698, 699, 700, 701, 702, 703, 704, 705, 706, 707, 708, 709, 710, 711, 712, 713, 714, 715, 716, 717, 718, 719, 720, 721, 722, 723, 724, 725, 726, 727, 728, 729, 730, 731, 732, 733, 734, 735, 736, 737, 738, 739, 740, 741, 742, 743, 744, 745, 746, 747, 748, 749, 750, 751, 752, 753, 754, 755, 756, 757, 758, 759, 760, 761, 762, 763, 764, 765, 766, 767, 768, 769, 770, 771, 772, 773, 774, 775, 776, 777, 778, 779, 780, 781, 782, 783, 784, 785, 786, 787, 788, 789, 790, 791, 792, 793, 794, 795, 796, 797, 798, 799};
d_dfa = array2d(1..799, 1..3, [
  2, 1, 1,
  3, 1, 1,
  4, 1, 1,
  6, 5, 5,
  8, 7, 7,
  10, 9, 9,
  12, 11, 11,
  13, 11, 11,
  15, 14, 14,
  17, 16, 16,
  19, 18, 18,
  20, 18, 18,
  21, 18, 18,
  23, 22, 22,
  24, 22, 22,
  26, 25, 25,
  28, 27, 27,
  30, 29, 29,
  31, 29, 29,
  32, 29, 29,
  34, 33, 33,
  36, 35, 35,
  37, 35, 35,
  38, 35, 35,
  40, 39, 39,
  41, 39, 39,
  43, 42, 42,
  45, 44, 44,
  47, 46, 46,
  48, 46, 46,
  49, 46, 46,
  51, 50, 50,
  53, 52, 52,
  55, 54, 54,
  57, 56, 56,
  58, 56, 56,
  59, 56, 56,
  61, 60, 60,
  63, 62, 62,
  64, 62, 62,
  65, 62, 62,
  67, 66, 66,
  68, 66, 66,
  70, 69, 69,
  72, 71, 71,
  74, 73, 73,
  75, 73, 73,
  76, 73, 73,
  78, 77, 77,
  80, 79, 79,
  82, 81, 81,
  84, 83, 83,
  85, 83, 83,
  87, 86, 86,
  89, 88, 88,
  91, 90, 90,
  92, 90, 90,
  93, 90, 90,
  95, 94, 94,
  97, 96, 96,
  99, 98, 98,
  101, 100, 100,
  102, 100, 100,
  103, 100, 100,
  105, 104, 104,
  107, 106, 106,
  108, 106, 106,
  109, 106, 106,
  111, 110, 110,
  112, 110, 110,
  114, 113, 113,
  116, 115, 115,
  118, 117, 117,
  119, 117, 117,
  120, 117, 117,
  122, 121, 121,
  124, 123, 123,
  126, 125, 125,
  128, 127, 127,
  129, 127, 127,
  131, 130, 130,
  133, 132, 132,
  135, 134, 134,
  136, 134, 134,
  137, 134, 134,
  139, 138, 138,
  140, 138, 138,
  142, 141, 141,
  144, 143, 143,
  146, 145, 145,
  147, 145, 145,
  148, 145, 145,
  150, 149, 149,
  152, 151, 151,
  154, 153, 153,
  156, 155, 155,
  157, 155, 155,
  159, 158, 158,
  161, 160, 160,
  163, 162, 162,
  164, 162, 162,
  165, 162, 162,
  167, 166, 166,
  169, 168, 168,
  171, 170, 170,
  173, 172, 172,
  174, 172, 172,
  175, 172, 172,
  177, 176, 176,
  179, 178, 178,
  180, 178, 178,
  181, 178, 178,
  183, 182, 182,
  184, 182, 182,
  186, 185, 185,
  188, 187, 187,
  190, 189, 189,
  191, 189, 189,
  192, 189, 189,
  194, 193, 193,
  196, 195, 195,
  198, 197, 197,
  200, 199, 199,
  201, 199, 199,
  203, 202, 202,
  205, 204, 204,
  207, 206, 206,
  208, 206, 206,
  209, 206, 206,
  211, 210, 210,
  212, 210, 210,
  214, 213, 213,
  216, 215, 215,
  218, 217, 217,
  219, 217, 217,
  220, 217, 217,
  222, 221, 221,
  224, 223, 223,
  225, 223, 223,
  226, 223, 223,
  228, 227, 227,
  229, 227, 227,
  231, 230, 230,
  233, 232, 232,
  235, 234, 234,
  236, 234, 234,
  237, 234, 234,
  239, 238, 238,
  241, 240, 240,
  243, 242, 242,
  245, 244, 244,
  246, 244, 244,
  248, 247, 247,
  250, 249, 249,
  252, 251, 251,
  253, 251, 251,
  254, 251, 251,
  256, 255, 255,
  257, 255, 255,
  259, 258, 258,
  261, 260, 260,
  263, 262, 262,
  264, 262, 262,
  265, 262, 262,
  267, 266, 266,
  269, 268, 268,
  271, 270, 270,
  273, 272, 272,
  274, 272, 272,
  276, 275, 275,
  278, 277, 277,
  280, 279, 279,
  281, 279, 279,
  282, 279, 279,
  284, 283, 283,
  286, 285, 285,
  288, 287, 287,
  290, 289, 289,
  291, 289, 289,
  292, 289, 289,
  294, 293, 293,
  296, 295, 295,
  297, 295, 295,
  298, 295, 295,
  300, 299, 299,
  301, 299, 299,
  303, 302, 302,
  305, 304, 304,
  307, 306, 306,
  308, 306, 306,
  309, 306, 306,
  311, 310, 310,
  313, 312, 312,
  315, 314, 314,
  317, 316, 316,
  318, 316, 316,
  320, 319, 319,
  322, 321, 321,
  324, 323, 323,
  325, 323, 323,
  326, 323, 323,
  328, 327, 327,
  329, 327, 327,
  331, 330, 330,
  333, 332, 332,
  335, 334, 334,
  336, 334, 334,
  337, 334, 334,
  339, 338, 338,
  341, 340, 340,
  342, 340, 340,
  343, 340, 340,
  345, 344, 344,
  346, 344, 344,
  348, 347, 347,
  350, 349, 349,
  352, 351, 351,
  353, 351, 351,
  354, 351, 351,
  356, 355, 355,
  358, 357, 357,
  360, 359, 359,
  362, 361, 361,
  363, 361, 361,
  364, 361, 361,
  366, 365, 365,
  368, 367, 367,
  369, 367, 367,
  370, 367, 367,
  372, 371, 371,
  373, 371, 371,
  375, 374, 374,
  377, 376, 376,
  379, 378, 378,
  380, 378, 378,
  381, 378, 378,
  383, 382, 382,
  385, 384, 384,
  387, 386, 386,
  389, 388, 388,
  390, 388, 388,
  392, 391, 391,
  394, 393, 393,
  396, 395, 395,
  397, 395, 395,
  398, 395, 395,
  400, 399, 399,
  401, 399, 399,
  403, 402, 402,
  405, 404, 404,
  407, 406, 406,
  408, 406, 406,
  409, 406, 406,
  411, 410, 410,
  413, 412, 412,
  414, 412, 412,
  415, 412, 412,
  417, 416, 416,
  418, 416, 416,
  420, 419, 419,
  422, 421, 421,
  424, 423, 423,
  425, 423, 423,
  426, 423, 423,
  428, 427, 427,
  430, 429, 429,
  432, 431, 431,
  434, 433, 433,
  435, 433, 433,
  437, 436, 436,
  439, 438, 438,
  441, 440, 440,
  442, 440, 440,
  443, 440, 440,
  445, 444, 444,
  446, 444, 444,
  448, 447, 447,
  450, 449, 449,
  452, 451, 451,
  453, 451, 451,
  454, 451, 451,
  456, 455, 455,
  458, 457, 457,
  460, 459, 459,
  462, 461, 461,
  463, 461, 461,
  465, 464, 464,
  467, 466, 466,
  469, 468, 468,
  470, 468, 468,
  471, 468, 468,
  473, 472, 472,
  475, 474, 474,
  477, 476, 476,
  479, 478, 478,
  480, 478, 478,
  481, 478, 478,
  483, 482, 482,
  485, 484, 484,
  486, 484, 484,
  487, 484, 484,
  489, 488, 488,
  490, 488, 488,
  492, 491, 491,
  494, 493, 493,
  496, 495, 495,
  497, 495, 495,
  498, 495, 495,
  500, 499, 499,
  502, 501, 501,
  504, 503, 503,
  506, 505, 505,
  507, 505, 505,
  509, 508, 508,
  511, 510, 510,
  513, 512, 512,
  514, 512, 512,
  515, 512, 512,
  517, 516, 516,
  518, 516, 516,
  520, 519, 519,
  522, 521, 521,
  524, 523, 523,
  525, 523, 523,
  526, 523, 523,
  528, 527, 527,
  530, 529, 529,
  531, 529, 529,
  532, 529, 529,
  534, 533, 533,
  535, 533, 533,
  537, 536, 536,
  539, 538, 538,
  541, 540, 540,
  542, 540, 540,
  543, 540, 540,
  545, 544, 544,
  547, 546, 546,
  549, 548, 548,
  551, 550, 550,
  552, 550, 550,
  553, 550, 550,
  555, 554, 554,
  557, 556, 556,
  558, 556, 556,
  559, 556, 556,
  561, 560, 560,
  562, 560, 560,
  564, 563, 563,
  566, 565, 565,
  568, 567, 567,
  569, 567, 567,
  570, 567, 567,
  572, 571, 571,
  574, 573, 573,
  576, 575, 575,
  578, 577, 577,
  579, 577, 577,
  581, 580, 580,
  583, 582, 582,
  585, 584, 584,
  586, 584, 584,
  587, 584, 584,
  589, 588, 588,
  591, 590, 590,
  593, 592, 592,
  595, 594, 594,
  596, 594, 594,
  597, 594, 594,
  599, 598, 598,
  601, 600, 600,
  602, 600, 600,
  603, 600, 600,
  605, 604, 604,
  606, 604, 604,
  608, 607, 607,
  610, 609, 609,
  612, 611, 611,
  613, 611, 611,
  614, 611, 611,
  616, 615, 615,
  618, 617, 617,
  620, 619, 619,
  622, 621, 621,
  623, 621, 621,
  625, 624, 624,
  627, 626, 626,
  629, 628, 628,
  630, 628, 628,
  631, 628, 628,
  633, 632, 632,
  634, 632, 632,
  636, 635, 635,
  638, 637, 637,
  640, 639, 639,
  641, 639, 639,
  642, 639, 639,
  644, 643, 643,
  646, 645, 645,
  647, 645, 645,
  648, 645, 645,
  650, 649, 649,
  651, 649, 649,
  653, 652, 652,
  655, 654, 654,
  657, 656, 656,
  658, 656, 656,
  659, 656, 656,
  661, 660, 660,
  663, 662, 662,
  665, 664, 664,
  667, 666, 666,
  668, 666, 666,
  669, 666, 666,
  671, 670, 670,
  673, 672, 672,
  674, 672, 672,
  675, 672, 672,
  677, 676, 676,
  678, 676, 676,
  680, 679, 679,
  682, 681, 681,
  684, 683, 683,
  685, 683, 683,
  686, 683, 683,
  688, 687, 687,
  690, 689, 689,
  692, 691, 691,
  694, 693, 693,
  695, 693, 693,
  697, 696, 696,
  699, 698, 698,
  701, 700, 700,
  702, 700, 700,
  703, 700, 700,
  705, 704, 704,
  706, 704, 704,
  708, 707, 707,
  710, 709, 709,
  712, 711, 711,
  713, 711, 711,
  714, 711, 711,
  716, 715, 715,
  718, 717, 717,
  719, 717, 717,
  720, 717, 717,
  722, 721, 721,
  723, 721, 721,
  725, 724, 724,
  727, 726, 726,
  729, 728, 728,
  730, 728, 728,
  731, 728, 728,
  733, 732, 732,
  735, 734, 734,
  737, 736, 736,
  739, 738, 738,
  740, 738, 738,
  742, 741, 741,
  744, 743, 743,
  746, 745, 745,
  747, 745, 745,
  748, 745, 745,
  750, 749, 749,
  751, 749, 749,
  753, 752, 752,
  755, 754, 754,
  757, 756, 756,
  758, 756, 756,
  759, 756, 756,
  761, 760, 760,
  763, 762, 762,
  765, 764, 764,
  767, 766, 766,
  768, 766, 766,
  770, 769, 769,
  772, 771, 771,
  774, 773, 773,
  775, 773, 773,
  776, 773, 773,
  778, 777, 777,
  780, 779, 779,
  782, 781, 781,
  784, 783, 783,
  785, 783, 783,
  786, 783, 783,
  788, 787, 787,
  790, 789, 789,
  791, 789, 789,
  792, 789, 789,
  794, 793, 793,
  795, 793, 793,
  797, 796, 796,
  799, 798, 798,
  2, 1, 1,
  3, 1, 1,
  4, 1, 1,
  6, 5, 5,
  8, 7, 7,
  10, 9, 9,
  12, 11, 11,
  13, 11, 11,
  15, 14, 14,
  17, 16, 16,
  19, 18, 18,
  20, 18, 18,
  21, 18, 18,
  23, 22, 22,
  24, 22, 22,
  26, 25, 25,
  28, 27, 27,
  30, 29, 29,
  31, 29, 29,
  32, 29, 29,
  34, 33, 33,
  36, 35, 35,
  37, 35, 35,
  38, 35, 35,
  40, 39, 39,
  41, 39, 39,
  43, 42, 42,
  45, 44, 44,
  47, 46, 46,
  48, 46, 46,
  49, 46, 46,
  51, 50, 50,
  53, 52, 52,
  55, 54, 54,
  57, 56, 56,
  58, 56, 56,
  59, 56, 56,
  61, 60, 60,
  63, 62, 62,
  64, 62, 62,
  65, 62, 62,
  67, 66, 66,
  68, 66, 66,
  70, 69, 69,
  72, 71, 71,
  74, 73, 73,
  75, 73, 73,
  76, 73, 73,
  78, 77, 77,
  80, 79, 79,
  82, 81, 81,
  84, 83, 83,
  85, 83, 83,
  87, 86, 86,
  89, 88, 88,
  91, 90, 90,
  92, 90, 90,
  93, 90, 90,
  95, 94, 94,
  97, 96, 96,
  99, 98, 98,
  101, 100, 100,
  102, 100, 100,
  103, 100, 100,
  105, 104, 104,
  107, 106, 106,
  108, 106, 106,
  109, 106, 106,
  111, 110, 110,
  112, 110, 110,
  114, 113, 113,
  116, 115, 115,
  118, 117, 117,
  119, 117, 117,
  120, 117, 117,
  122, 121, 121,
  124, 123, 123,
  126, 125, 125,
  128, 127, 127,
  129, 127, 127,
  131, 130, 130,
  133, 132, 132,
  135, 134, 134,
  136, 134, 134,
  137, 134, 134,
  139, 138, 138,
  140, 138, 138,
  142, 141, 141,
  144, 143, 143,
  146, 145, 145,
  147, 145, 145,
  148, 145, 145,
  150, 149, 149,
  152, 151, 151,
  154, 153, 153,
  156, 155, 155,
  157, 155, 155,
  159, 158, 158,
  161, 160, 160,
  163, 162, 162,
  164, 162, 162,
  165, 162, 162,
  167, 166, 166,
  169, 168, 168,
  171, 170, 170,
  173, 172, 172,
  174, 172, 172,
  175, 172, 172,
  177, 176, 176,
  179, 178, 178,
  180, 178, 178,
  181, 178, 178,
  183, 182, 182,
  184, 182, 182,
  186, 185, 185,
  188, 187, 187,
  496, 495, 495,
  497, 495, 495,
  498, 495, 495,
  500, 499, 499,
  502, 501, 501,
  504, 503, 503,
  506, 505, 505,
  507, 505, 505,
  509, 508, 508,
  511, 510, 510,
  513, 512, 512,
  514, 512, 512,
  515, 512, 512,
  517, 516, 516,
  518, 516, 516,
  520, 519, 519,
  522, 521, 521,
  524, 523, 523,
  525, 523, 523,
  526, 523, 523,
  528, 527, 527,
  530, 529, 529,
  531, 529, 529,
  532, 529, 529,
  534, 533, 533,
  535, 533, 533,
  537, 536, 536,
  539, 538, 538,
  541, 540, 540,
  542, 540, 540,
  543, 540, 540,
  545, 544, 544,
  547, 546, 546,
  549, 548, 548,
  551, 550, 550,
  552, 550, 550,
  553, 550, 550,
  555, 554, 554,
  557, 556, 556,
  558, 556, 556,
  559, 556, 556,
  561, 560, 560,
  562, 560, 560,
  564, 563, 563,
  566, 565, 565,
  568, 567, 567,
  569, 567, 567,
  570, 567, 567,
  572, 571, 571,
  574, 573, 573,
  576, 575, 575,
  578, 577, 577,
  579, 577, 577,
  581, 580, 580,
  583, 582, 582,
  585, 584, 584,
  586, 584, 584,
  587, 584, 584,
  589, 588, 588,
  591, 590, 590,
  593, 592, 592,
  595, 594, 594,
  596, 594, 594,
  597, 594, 594,
  599, 598, 598,
  601, 600, 600,
  602, 600, 600,
  603, 600, 600,
  605, 604, 604,
  606, 604, 604,
  608, 607, 607,
  610, 609, 609,
  612, 611, 611,
  613, 611, 611,
  614, 611, 611,
  616, 615, 615,
  618, 617, 617,
  620, 619, 619,
  622, 621, 621,
  623, 621, 621,
  625, 624, 624,
  627, 626, 626,
  629, 628, 628,
  630, 628, 628,
  631, 628, 628,
  633, 632, 632,
  634, 632, 632,
  636, 635, 635,
  638, 637, 637,
  640, 639, 639,
  641, 639, 639,
  642, 639, 639,
  644, 643, 643,
  646, 645, 645,
  647, 645, 645,
  648, 645, 645,
  650, 649, 649,
  651, 649, 649,
  653, 652, 652,
  655, 654, 654,
  657, 656, 656,
  658, 656, 656,
  659, 656, 656,
  661, 660, 660,
  663, 662, 662,
  665, 664, 664,
  667, 666, 666,
  668, 666, 666,
  669, 666, 666,
  671, 670, 670,
  673, 672, 672,
  674, 672, 672,
  675, 672, 672,
  677, 676, 676,
  678, 676, 676,
  680, 679, 679,
  682, 681, 681,
  684, 683, 683,
  685, 683, 683,
  686, 683, 683,
  688, 687, 687,
  690, 689, 689,
  692, 691, 691,
  694, 693, 693,
  695, 693, 693,
  697, 696, 696,
  699, 698, 698,
  701, 700, 700,
  702, 700, 700,
  703, 700, 700,
  705, 704, 704,
  706, 704, 704,
  708, 707, 707,
  710, 709, 709,
  712, 711, 711,
  713, 711, 711,
  714, 711, 711,
  716, 715, 715,
  718, 717, 717,
  719, 717, 717,
  720, 717, 717,
  722, 721, 721,
  723, 721, 721,
  725, 724, 724,
  727, 726, 726,
  729, 728, 728,
  730, 728, 728,
  731, 728, 728,
  733, 732, 732,
  735, 734, 734,
  737, 736, 736,
  739, 738, 738,
  740, 738, 738,
  742, 741, 741,
  744, 743, 743,
  746, 745, 745,
  747, 745, 745,
  748, 745, 745,
  750, 749, 749,
  751, 749, 749,
  753, 752, 752,
  755, 754, 754,
  757, 756, 756,
  758, 756, 756,
  759, 756, 756,
  761, 760, 760,
  763, 762, 762,
  765, 764, 764,
  767, 766, 766,
  768, 766, 766,
  770, 769, 769,
  772, 771, 771,
  774, 773, 773,
  775, 773, 773,
  776, 773, 773,
  778, 777, 777,
  780, 779, 779,
  782, 781, 781,
  784, 783, 783,
  785, 783, 783,
  786, 783, 783,
  788, 787, 787,
  790, 789, 789,
  791, 789, 789,
  792, 789, 789,
  794, 793, 793,
  795, 793, 793,
  797, 796, 796,
  799, 798, 798
]);
d_nfa = array2d(1..799, 1..3, [
  {}, {}, {},
  {}, {}, {},
  {}, {}, {},
  {}, {}, {},
  {}, {}, {},
  {}, {}, {},
  {}, {}, {},
  {}, {}, {},
  {}, {}, {},
  {}, {}, {},
  {}, {}, {},
  {}, {}, {},
  {}, {}, {},
  {}, {}, {},
  {}, {}, {},
  {}, {}, {},
  {}, {}, {},
  {}, {}, {},
  {}, {}, {},
  {}, {}, {},
  {}, {}, {},
  {}, {}, {},
  {}, {}, {},
  {}, {}, {},
  {}, {}, {},
  {}, {}, {},
  {}, {}, {},
  {}, {}, {},
  {}, {}, {},
  {}, {}, {},
  {}, {}, {},
  {}, {}, {},
  {}, {}, {},
  {}, {}, {},
  {}, {}, {},
  {}, {}, {},
  {}, {}, {},
  {}, {}, {},
  {}, {}, {},
  {}, {}, {},
  {}, {}, {},
  {}, {}, {},
  {}, {}, {},
  {}, {}, {},
  {}, {}, {},
  {}, {}, {},
  {}, {}, {},
  {}, {}, {},
  {}, {}, {},
  {}, {}, {},
  {}, {}, {},
  {}, {}, {},
  {}, {}, {},
  {}, {}, {},
  {}, {}, {},
  {}, {}, {},
  {}, {}, {},
  {}, {}, {},
  {}, {}, {},
  {}, {}, {},
  {}, {}, {},
  {}, {}, {},
  {}, {}, {},
  {}, {}, {},
  {}, {}, {},
  {}, {}, {},
  {}, {}, {},
  {}, {}, {},
  {}, {}, {},
  {}, {}, {},
  {}, {}, {},
  {}, {}, {},
  {}, {}, {},
  {}, {}, {},
  {}, {}, {},
  {}, {}, {},
  {}, {}, {},
  {}, {}, {},
  {}, {}, {},
  {}, {}, {},
  {}, {}, {},
  {}, {}, {},
  {}, {}, {},
  {}, {}, {},
  {}, {}, {},
  {}, {}, {},
  {}, {}, {},
  {}, {}, {},
  {}, {}, {},
  {}, {}, {},
  {}, {}, {},
  {}, {}, {},
  {}, {}, {},
  {}, {}, {},
  {}, {}, {},
  {}, {}, {},
  {}, {}, {},
  {}, {}, {},
  {}, {}, {},
  {}, {}, {},
  {}, {}, {},
  {}, {}, {},
  {}, {}, {},
  {}, {}, {},
  {}, {}, {},
  {}, {}, {},
  {}, {}, {},
  {}, {}, {},
  {}, {}, {},
  {}, {}, {},
  {}, {}, {},
  {}, {}, {},
  {}, {}, {},
  {}, {}, {},
  {}, {}, {},
  {}, {}, {},
  {}, {}, {},
  {}, {}, {},
  {}, {}, {},
  {}, {}, {},
  {}, {}, {},
  {}, {}, {},
  {}, {}, {},
  {}, {}, {},
  {}, {}, {},
  {}, {}, {},
  {}, {}, {},
  {}, {}, {},
  {}, {}, {},
  {}, {}, {},
  {}, {}, {},
  {}, {}, {},
  {}, {}, {},
  {}, {}, {},
  {}, {}, {},
  {}, {}, {},
  {}, {}, {},
  {}, {}, {},
  {}, {}, {},
  {}, {}, {},
  {}, {}, {},
  {}, {}, {},
  {}, {}, {},
  {}, {}, {},
  {}, {}, {},
  {}, {}, {},
  {}, {}, {},
  {}, {}, {},
  {}, {}, {},
  {}, {}, {},
  {}, {}, {},
  {}, {}, {},
  {}, {}, {},
  {}, {}, {},
  {}, {}, {},
  {}, {}, {},
  {}, {}, {},
  {}, {}, {},
  {}, {}, {},
  {}, {}, {},
  {}, {}, {},
  {}, {}, {},
  {}, {}, {},
  {}, {}, {},
  {}, {}, {},
  {}, {}, {},
  {}, {}, {},
  {}, {}, {},
  {}, {}, {},
  {}, {}, {},
  {}, {}, {},
  {}, {}, {},
  {}, {}, {},
  {}, {}, {},
  {}, {}, {},
  {}, {}, {},
  {}, {}, {},
  {}, {}, {},
  {}, {}, {},
  {}, {}, {},
  {}, {}, {},
  {}, {}, {},
  {}, {}, {},
  {}, {}, {},
  {}, {}, {},
  {}, {}, {},
  {}, {}, {},
  {}, {}, {},
  {}, {}, {},
  {}, {}, {},
  {}, {}, {},
  {}, {}, {},
  {}, {}, {},
  {}, {}, {},
  {}, {}, {},
  {}, {}, {},
  {}, {}, {},
  {}, {}, {},
  {}, {}, {},
  {}, {}, {},
  {}, {}, {},
  {}, {}, {},
  {}, {}, {},
  {}, {}, {},
  {}, {}, {},
  {}, {}, {},
  {}, {}, {},
  {}, {}, {},
  {}, {}, {},
  {}, {}, {},
  {}, {}, {},
  {}, {}, {},
  {}, {}, {},
  {}, {}, {},
  {}, {}, {},
  {}, {}, {},
  {}, {}, {},
  {}, {}, {},
  {}, {}, {},
  {}, {}, {},
  {}, {}, {},
  {}, {}, {},
  {}, {}, {},
  {}, {}, {},
  {}, {}, {},
  {}, {}, {},
  {}, {}, {},
  {}, {}, {},
  {}, {}, {},
  {}, {}, {},
  {}, {}, {},
  {}, {}, {},
  {}, {}, {},
  {}, {}, {},
  {}, {}, {},
  {}, {}, {},
  {}, {}, {},
  {}, {}, {},
  {}, {}, {},
  {}, {}, {},
  {}, {}, {},
  {}, {}, {},
  {}, {}, {},
  {}, {}, {},
  {}, {}, {},
  {}, {}, {},
  {}, {}, {},
  {}, {}, {},
  {}, {}, {},
  {}, {}, {},
  {}, {}, {},
  {}, {}, {},
  {}, {}, {},
  {}, {}, {},
  {}, {}, {},
  {}, {}, {},
  {}, {}, {},
  {}, {}, {},
  {}, {}, {},
  {}, {}, {},
  {}, {}, {},
  {}, {}, {},
  {}, {}, {},
  {}, {}, {},
  {}, {}, {},
  {}, {}, {},
  {}, {}, {},
  {}, {}, {},
  {}, {}, {},
  {}, {}, {},
  {}, {}, {},
  {}, {}, {},
  {}, {}, {},
  {}, {}, {},
  {}, {}, {},
  {}, {}, {},
  {}, {}, {},
  {}, {}, {},
  {}, {}, {},
  {}, {}, {},
  {}, {}, {},
  {}, {}, {},
  {}, {}, {},
  {}, {}, {},
  {}, {}, {},
  {}, {}, {},
  {}, {}, {},
  {}, {}, {},
  {}, {}, {},
  {}, {}, {},
  {}, {}, {},
  {}, {}, {},
  {}, {}, {},
  {}, {}, {},
  {}, {}, {},
  {}, {}, {},
  {}, {}, {},
  {}, {}, {},
  {}, {}, {},
  {}, {}, {},
  {}, {}, {},
  {}, {}, {},
  {}, {}, {},
  {}, {}, {},
  {}, {}, {},
  {}, {}, {},
  {}, {}, {},
  {}, {}, {},
  {}, {}, {},
  {}, {}, {},
  {}, {}, {},
  {}, {}, {},
  {}, {}, {},
  {}, {}, {},
  {}, {}, {},
  {}, {}, {},
  {}, {}, {},
  {}, {}, {},
  {}, {}, {},
  {}, {}, {},
  {}, {}, {},
  {}, {}, {},
  {}, {}, {},
  {}, {}, {},
  {}, {}, {},
  {}, {}, {},
  {}, {}, {},
  {}, {}, {},
  {}, {}, {},
  {}, {}, {},
  {}, {}, {},
  {}, {}, {},
  {}, {}, {},
  {}, {}, {},
  {}, {}, {},
  {}, {}, {},
  {}, {}, {},
  {}, {}, {},
  {}, {}, {},
  {}, {}, {},
  {}, {}, {},
  {}, {}, {},
  {}, {}, {},
  {}, {}, {},
  {}, {}, {},
  {}, {}, {},
  {}, {}, {},
  {}, {}, {},
  {}, {}, {},
  {}, {}, {},
  {}, {}, {},
  {}, {}, {},
  {}, {}, {},
  {}, {}, {},
  {}, {}, {},
  {}, {}, {},
  {}, {}, {},
  {}, {}, {},
  {}, {}, {},
  {}, {}, {},
  {}, {}, {},
  {}, {}, {},
  {}, {}, {},
  {}, {}, {},
  {}, {}, {},
  {}, {}, {},
  {}, {}, {},
  {}, {}, {},
  {}, {}, {},
  {}, {}, {},
  {}, {}, {},
  {}, {}, {},
  {}, {}, {},
  {}, {}, {},
  {}, {}, {},
  {}, {}, {},
  {}, {}, {},
  {}, {}, {},
  {}, {}, {},
  {}, {}, {},
  {}, {}, {},
  {}, {}, {},
  {}, {}, {},
  {}, {}, {},
  {}, {}, {},
  {}, {}, {},
  {}, {}, {},
  {}, {}, {},
  {}, {}, {},
  {}, {}, {},
  {}, {}, {},
  {}, {}, {},
  {}, {}, {},
  {}, {}, {},
  {}, {}, {},
  {}, {}, {},
  {}, {}, {},
  {}, {}, {},
  {}, {}, {},
  {}, {}, {},
  {}, {}, {},
  {}, {}, {},
  {}, {}, {},
  {}, {}, {},
  {}, {}, {},
  {}, {}, {},
  {}, {}, {},
  {}, {}, {},
  {}, {}, {},
  {}, {}, {},
  {}, {}, {},
  {}, {}, {},
  {}, {}, {},
  {}, {}, {},
  {}, {}, {},
  {}, {}, {},
  {}, {}, {},
  {}, {}, {},
  {}, {}, {},
  {}, {}, {},
  {}, {}, {},
  {}, {}, {},
  {}, {}, {},
  {}, {}, {},
  {}, {}, {},
  {}, {}, {},
  {}, {}, {},
  {}, {}, {},
  {}, {}, {},
  {}, {}, {},
  {}, {}, {},
  {}, {}, {},
  {}, {}, {},
  {}, {}, {},
  {}, {}, {},
  {}, {}, {},
  {}, {}, {},
  {}, {}, {},
  {}, {}, {},
  {}, {}, {},
  {}, {}, {},
  {}, {}, {},
  {}, {}, {},
  {}, {}, {},
  {}, {}, {},
  {}, {}, {},
  {}, {}, {},
  {}, {}, {},
  {}, {}, {},
  {}, {}, {},
  {}, {}, {},
  {}, {}, {},
  {}, {}, {},
  {}, {}, {},
  {}, {}, {},
  {}, {}, {},
  {}, {}, {},
  {}, {}, {},
  {}, {}, {},
  {}, {}, {},
  {}, {}, {},
  {}, {}, {},
  {}, {}, {},
  {}, {}, {},
  {}, {}, {},
  {}, {}, {},
  {}, {}, {},
  {}, {}, {},
  {}, {}, {},
  {}, {}, {},
  {}, {}, {},
  {}, {}, {},
  {}, {}, {},
  {}, {}, {},
  {}, {}, {},
  {}, {}, {},
  {}, {}, {},
  {}, {}, {},
  {}, {}, {},
  {}, {}, {},
  {}, {}, {},
  {}, {}, {},
  {}, {}, {},
  {}, {}, {},
  {}, {}, {},
  {}, {}, {},
  {}, {}, {},
  {}, {}, {},
  {}, {}, {},
  {}, {}, {},
  {}, {}, {},
  {}, {}, {},
  {}, {}, {},
  {}, {}, {},
  {}, {}, {},
  {}, {}, {},
  {}, {}, {},
  {}, {}, {},
  {}, {}, {},
  {}, {}, {},
  {}, {}, {},
  {}, {}, {},
  {}, {}, {},
  {}, {}, {},
  {}, {}, {},
  {}, {}, {},
  {}, {}, {},
  {}, {}, {},
  {}, {}, {},
  {}, {}, {},
  {}, {}, {},
  {}, {}, {},
  {}, {}, {},
  {}, {}, {},
  {}, {}, {},
  {}, {}, {},
  {}, {}, {},
  {}, {}, {},
  {}, {}, {},
  {}, {}, {},
  {}, {}, {},
  {}, {}, {},
  {}, {}, {},
  {}, {}, {},
  {}, {}, {},
  {}, {}, {},
  {}, {}, {},
  {}, {}, {},
  {}, {}, {},
  {}, {}, {},
  {}, {}, {},
  {}, {}, {},
  {}, {}, {},
  {}, {}, {},
  {}, {}, {},
  {}, {}, {},
  {}, {}, {},
  {}, {}, {},
  {}, {}, {},
  {}, {}, {},
  {}, {}, {},
  {}, {}, {},
  {}, {}, {},
  {}, {}, {},
  {}, {}, {},
  {}, {}, {},
  {}, {}, {},
  {}, {}, {},
  {}, {}, {},
  {}, {}, {},
  {}, {}, {},
  {}, {}, {},
  {}, {}, {},
  {}, {}, {},
  {}, {}, {},
  {}, {}, {},
  {}, {}, {},
  {}, {}, {},
  {}, {}, {},
  {}, {}, {},
  {}, {}, {},
  {}, {}, {},
  {}, {}, {},
  {}, {}, {},
  {}, {}, {},
  {}, {}, {},
  {}, {}, {},
  {}, {}, {},
  {}, {}, {},
  {}, {}, {},
  {}, {}, {},
  {}, {}, {},
  {}, {}, {},
  {}, {}, {},
  {}, {}, {},
  {}, {}, {},
  {}, {}, {},
  {}, {}, {},
  {}, {}, {},
  {}, {}, {},
  {}, {}, {},
  {}, {}, {},
  {}, {}, {},
  {}, {}, {},
  {}, {}, {},
  {}, {}, {},
  {}, {}, {},
  {}, {}, {},
  {}, {}, {},
  {}, {}, {},
  {}, {}, {},
  {}, {}, {},
  {}, {}, {},
  {}, {}, {},
  {}, {}, {},
  {}, {}, {},
  {}, {}, {},
  {}, {}, {},
  {}, {}, {},
  {}, {}, {},
  {}, {}, {},
  {}, {}, {},
  {}, {}, {},
  {}, {}, {},
  {}, {}, {},
  {}, {}, {},
  {}, {}, {},
  {}, {}, {},
  {}, {}, {},
  {}, {}, {},
  {}, {}, {},
  {}, {}, {},
  {}, {}, {},
  {}, {}, {},
  {}, {}, {},
  {}, {}, {},
  {}, {}, {},
  {}, {}, {},
  {}, {}, {},
  {}, {}, {},
  {}, {}, {},
  {}, {}, {},
  {}, {}, {},
  {}, {}, {},
  {}, {}, {},
  {}, {}, {},
  {}, {}, {},
  {}, {}, {},
  {}, {}, {},
  {}, {}, {},
  {}, {}, {},
  {}, {}, {},
  {}, {}, {},
  {}, {}, {},
  {}, {}, {},
  {}, {}, {},
  {}, {}, {},
  {}, {}, {},
  {}, {}, {},
  {}, {}, {},
  {}, {}, {},
  {}, {}, {},
  {}, {}, {},
  {}, {}, {},
  {}, {}, {},
  {}, {}, {},
  {}, {}, {},
  {}, {}, {},
  {}, {}, {},
  {}, {}, {},
  {}, {}, {},
  {}, {}, {},
  {}, {}, {},
  {}, {}, {},
  {}, {}, {},
  {}, {}, {},
  {}, {}, {},
  {}, {}, {},
  {}, {}, {},
  {}, {}, {},
  {}, {}, {},
  {}, {}, {},
  {}, {}, {},
  {}, {}, {},
  {}, {}, {},
  {}, {}, {},
  {}, {}, {},
  {}, {}, {},
  {}, {}, {},
  {}, {}, {},
  {}, {}, {},
  {}, {}, {},
  {}, {}, {},
  {}, {}, {},
  {}, {}, {},
  {}, {}, {},
  {}, {}, {},
  {}, {}, {},
  {}, {}, {},
  {}, {}, {},
  {}, {}, {},
  {}, {}, {},
  {}, {}, {},
  {}, {}, {},
  {}, {}, {},
  {}, {}, {},
  {}, {}, {},
  {}, {}, {},
  {}, {}, {},
  {}, {}, {},
  {}, {}, {},
  {}, {}, {},
  {}, {}, {},
  {}, {}, {},
  {}, {}, {},
  {}, {}, {},
  {}, {}, {},
  {}, {}, {},
  {}, {}, {},
  {}, {}, {},
  {}, {}, {},
  {}, {}, {},
  {}, {}, {},
  {}, {}, {},
  {}, {}, {},
  {}, {}, {},
  {}, {}, {},
  {}, {}, {},
  {}, {}, {},
  {}, {}, {},
  {}, {}, {},
  {}, {}, {},
  {}, {}, {},
  {}, {}, {},
  {}, {}, {},
  {}, {}, {},
  {}, {}, {},
  {}, {}, {},
  {}, {}, {},
  {}, {}, {},
  {}, {}, {},
  {}, {}, {},
  {}, {}, {},
  {}, {}, {},
  {}, {}, {},
  {}, {}, {},
  {}, {}, {},
  {}, {}, {},
  {}, {}, {},
  {}, {}, {},
  {}, {}, {},
  {}, {}, {},
  {}, {}, {},
  {}, {}, {},
  {}, {}, {},
  {}, {}, {},
  {}, {}, {},
  {}, {}, {},
  {}, {}, {},
  {}, {}, {},
  {}, {}, {},
  {}, {}, {},
  {}, {}, {},
  {}, {}, {},
  {}, {}, {},
  {}, {}, {},
  {}, {}, {},
  {}, {}, {},
  {}, {}, {},
  {}, {}, {},
  {}, {}, {},
  {}, {}, {},
  {}, {}, {},
  {}, {}, {},
  {}, {}, {},
  {}, {}, {},
  {}, {}, {},
  {}, {}, {},
  {}, {}, {},
  {}, {}, {},
  {}, {}, {},
  {}, {}, {},
  {}, {}, {},
  {}, {}, {},
  {}, {}, {},
  {}, {}, {},
  {}, {}, {},
  {}, {}, {},
  {}, {}, {},
  {}, {}, {},
  {}, {}, {},
  {}, {}, {},
  {}, {}, {},
  {}, {}, {},
  {}, {}, {},
  {}, {}, {},
  {}, {}, {},
  {}, {}, {},
  {}, {}, {},
  {}, {}, {},
  {}, {}, {},
  {}, {}, {},
  {}, {}, {},
  {}, {}, {},
  {}, {}, {},
  {}, {}, {},
  {}, {}, {},
  {}, {}, {},
  {}, {}, {},
  {}, {}, {},
  {}, {}, {},
  {}, {}, {},
  {}, {}, {},
  {}, {}, {},
  {}, {}, {},
  {}, {}, {},
  {}, {}, {},
  {}, {}, {},
  {}, {}, {}
]);
